-348.0 7.0 4.0 2.0 6.0 5.0 5.0 9.0 0.0 9.0 5.0 0.0 7.0 4.0 1.0 9.0 7.0 7.0 10.0 9.0 0.0 0.0 6.0 2.0 1.0 7.0 5.0 8.0 5.0 3.0 5.0 3.0 2.0 0.0 10.0 2.0 3.0 5.0 2.0 1.0 3.0 3.0 7.0 6.0 9.0 2.0 2.0 3.0 0.0 4.0 2.0 6.0 2.0 7.0 0.0 5.0 2.0 3.0 0.0 6.0 7.0 0.0 9.0 9.0 6.0 9.0 2.0 4.0 8.0 1.0 4.0 6.0 5.0 8.0 4.0 2.0 10.0 6.0 
7.0 -410.0 3.0 1.0 6.0 4.0 7.0 6.0 3.0 10.0 6.0 2.0 7.0 6.0 8.0 4.0 1.0 6.0 4.0 10.0 6.0 6.0 8.0 3.0 3.0 5.0 3.0 7.0 5.0 6.0 8.0 10.0 4.0 7.0 10.0 4.0 2.0 5.0 2.0 6.0 7.0 6.0 9.0 8.0 5.0 1.0 3.0 10.0 7.0 6.0 4.0 6.0 7.0 1.0 4.0 10.0 4.0 8.0 3.0 8.0 2.0 8.0 7.0 2.0 7.0 10.0 1.0 9.0 7.0 10.0 9.0 10.0 0.0 0.0 0.0 0.0 0.0 0.0 
4.0 3.0 -402.0 4.0 5.0 9.0 7.0 4.0 9.0 0.0 3.0 8.0 0.0 5.0 2.0 6.0 4.0 5.0 6.0 4.0 0.0 5.0 5.0 6.0 2.0 5.0 0.0 5.0 6.0 6.0 0.0 5.0 7.0 10.0 4.0 1.0 3.0 0.0 5.0 1.0 4.0 10.0 5.0 9.0 5.0 1.0 10.0 7.0 6.0 10.0 2.0 6.0 1.0 0.0 8.0 5.0 2.0 6.0 5.0 7.0 8.0 10.0 7.0 4.0 10.0 1.0 5.0 6.0 3.0 6.0 9.0 9.0 8.0 6.0 8.0 10.0 10.0 9.0 
2.0 1.0 4.0 -381.0 9.0 6.0 3.0 1.0 8.0 3.0 3.0 8.0 9.0 7.0 9.0 3.0 1.0 1.0 9.0 10.0 9.0 8.0 5.0 4.0 3.0 4.0 0.0 1.0 8.0 0.0 0.0 4.0 1.0 8.0 1.0 1.0 7.0 6.0 8.0 4.0 8.0 7.0 10.0 6.0 0.0 9.0 4.0 9.0 7.0 2.0 10.0 5.0 8.0 2.0 2.0 8.0 8.0 7.0 4.0 0.0 7.0 7.0 0.0 2.0 7.0 5.0 9.0 9.0 1.0 4.0 8.0 0.0 3.0 9.0 2.0 0.0 3.0 10.0 
6.0 6.0 5.0 9.0 -400.0 1.0 9.0 1.0 4.0 3.0 5.0 2.0 5.0 9.0 5.0 0.0 6.0 6.0 3.0 9.0 5.0 3.0 8.0 3.0 2.0 9.0 0.0 8.0 8.0 3.0 10.0 0.0 4.0 6.0 4.0 7.0 6.0 9.0 3.0 1.0 4.0 8.0 8.0 10.0 7.0 3.0 5.0 5.0 7.0 2.0 8.0 5.0 2.0 1.0 0.0 10.0 8.0 10.0 4.0 6.0 1.0 0.0 8.0 3.0 4.0 7.0 9.0 6.0 7.0 0.0 2.0 9.0 6.0 9.0 7.0 5.0 5.0 6.0 
5.0 4.0 9.0 6.0 1.0 -339.0 3.0 0.0 0.0 6.0 0.0 9.0 10.0 1.0 5.0 6.0 9.0 8.0 7.0 6.0 0.0 5.0 0.0 9.0 4.0 2.0 10.0 5.0 0.0 5.0 0.0 5.0 0.0 0.0 7.0 3.0 10.0 2.0 7.0 6.0 0.0 7.0 8.0 5.0 6.0 8.0 3.0 10.0 6.0 0.0 2.0 9.0 1.0 7.0 6.0 1.0 2.0 0.0 6.0 10.0 2.0 6.0 2.0 2.0 2.0 2.0 7.0 2.0 4.0 8.0 6.0 0.0 10.0 2.0 5.0 1.0 0.0 6.0 
5.0 7.0 7.0 3.0 9.0 3.0 -414.0 8.0 6.0 8.0 4.0 10.0 6.0 1.0 9.0 10.0 2.0 4.0 5.0 8.0 4.0 8.0 9.0 7.0 9.0 5.0 10.0 8.0 4.0 2.0 8.0 6.0 0.0 4.0 9.0 1.0 1.0 10.0 8.0 4.0 8.0 8.0 7.0 4.0 6.0 1.0 9.0 7.0 4.0 0.0 0.0 7.0 10.0 2.0 10.0 2.0 6.0 3.0 0.0 7.0 1.0 7.0 0.0 6.0 9.0 1.0 10.0 7.0 7.0 2.0 0.0 10.0 2.0 0.0 4.0 7.0 2.0 6.0 
9.0 6.0 4.0 1.0 1.0 0.0 8.0 -407.0 7.0 0.0 8.0 9.0 3.0 7.0 4.0 0.0 4.0 7.0 8.0 7.0 10.0 10.0 8.0 0.0 9.0 6.0 9.0 1.0 9.0 5.0 7.0 10.0 6.0 10.0 5.0 3.0 0.0 8.0 3.0 8.0 10.0 8.0 0.0 0.0 1.0 3.0 4.0 1.0 10.0 0.0 0.0 6.0 1.0 10.0 10.0 2.0 8.0 8.0 9.0 3.0 9.0 0.0 0.0 9.0 10.0 0.0 2.0 8.0 3.0 5.0 2.0 8.0 9.0 8.0 7.0 0.0 7.0 6.0 
0.0 3.0 9.0 8.0 4.0 0.0 6.0 7.0 -379.0 8.0 2.0 8.0 4.0 4.0 0.0 10.0 7.0 2.0 6.0 9.0 6.0 6.0 9.0 4.0 10.0 2.0 10.0 1.0 4.0 9.0 5.0 0.0 7.0 9.0 6.0 3.0 6.0 2.0 0.0 1.0 5.0 7.0 9.0 0.0 0.0 3.0 1.0 5.0 10.0 1.0 4.0 6.0 10.0 10.0 4.0 10.0 0.0 4.0 10.0 8.0 3.0 6.0 7.0 4.0 0.0 1.0 1.0 8.0 7.0 10.0 0.0 0.0 5.0 10.0 6.0 6.0 1.0 0.0 
9.0 10.0 0.0 3.0 3.0 6.0 8.0 0.0 8.0 -410.0 7.0 7.0 5.0 5.0 3.0 4.0 1.0 2.0 1.0 9.0 10.0 6.0 4.0 1.0 4.0 7.0 1.0 7.0 1.0 9.0 1.0 6.0 10.0 5.0 8.0 0.0 1.0 9.0 7.0 6.0 8.0 8.0 10.0 9.0 5.0 6.0 4.0 5.0 10.0 4.0 6.0 2.0 5.0 2.0 4.0 2.0 6.0 7.0 9.0 8.0 6.0 7.0 3.0 6.0 5.0 4.0 1.0 0.0 6.0 9.0 8.0 1.0 5.0 9.0 10.0 6.0 8.0 2.0 
5.0 6.0 3.0 3.0 5.0 0.0 4.0 8.0 2.0 7.0 -390.0 9.0 5.0 0.0 10.0 10.0 5.0 3.0 1.0 5.0 3.0 2.0 8.0 9.0 10.0 4.0 7.0 6.0 8.0 2.0 7.0 0.0 4.0 7.0 8.0 10.0 1.0 9.0 1.0 6.0 8.0 8.0 2.0 3.0 2.0 1.0 8.0 9.0 3.0 4.0 4.0 10.0 0.0 6.0 10.0 0.0 8.0 4.0 5.0 10.0 6.0 9.0 0.0 1.0 1.0 1.0 0.0 6.0 10.0 6.0 6.0 6.0 10.0 0.0 7.0 8.0 2.0 3.0 
0.0 2.0 8.0 8.0 2.0 9.0 10.0 9.0 8.0 7.0 9.0 -377.0 3.0 10.0 9.0 1.0 3.0 0.0 0.0 2.0 3.0 2.0 3.0 3.0 0.0 5.0 7.0 10.0 9.0 1.0 10.0 8.0 1.0 9.0 1.0 2.0 2.0 1.0 6.0 8.0 10.0 6.0 0.0 2.0 8.0 8.0 6.0 4.0 5.0 10.0 5.0 5.0 3.0 0.0 4.0 5.0 10.0 5.0 8.0 6.0 5.0 6.0 3.0 3.0 4.0 7.0 4.0 9.0 0.0 3.0 1.0 10.0 4.0 2.0 0.0 2.0 10.0 3.0 
7.0 7.0 0.0 9.0 5.0 10.0 6.0 3.0 4.0 5.0 5.0 3.0 -383.0 6.0 6.0 8.0 2.0 6.0 10.0 4.0 10.0 7.0 3.0 0.0 7.0 0.0 2.0 10.0 10.0 8.0 10.0 1.0 3.0 3.0 10.0 5.0 6.0 8.0 8.0 0.0 5.0 0.0 5.0 1.0 9.0 5.0 2.0 0.0 7.0 6.0 0.0 2.0 0.0 7.0 5.0 8.0 3.0 3.0 0.0 8.0 7.0 4.0 8.0 4.0 3.0 7.0 3.0 4.0 7.0 6.0 5.0 9.0 5.0 2.0 1.0 0.0 10.0 5.0 
4.0 6.0 5.0 7.0 9.0 1.0 1.0 7.0 4.0 5.0 0.0 10.0 6.0 -324.0 7.0 10.0 8.0 1.0 4.0 0.0 7.0 3.0 1.0 4.0 0.0 2.0 9.0 10.0 1.0 6.0 7.0 10.0 1.0 4.0 4.0 10.0 1.0 8.0 4.0 0.0 3.0 2.0 6.0 6.0 1.0 9.0 2.0 1.0 0.0 1.0 0.0 0.0 8.0 0.0 9.0 3.0 6.0 0.0 0.0 0.0 1.0 7.0 5.0 8.0 5.0 8.0 7.0 8.0 1.0 9.0 3.0 0.0 0.0 1.0 0.0 10.0 2.0 5.0 
1.0 8.0 2.0 9.0 5.0 5.0 9.0 4.0 0.0 3.0 10.0 9.0 6.0 7.0 -416.0 9.0 5.0 5.0 1.0 6.0 5.0 4.0 9.0 10.0 3.0 8.0 8.0 7.0 1.0 4.0 2.0 9.0 7.0 0.0 1.0 10.0 7.0 8.0 4.0 0.0 6.0 2.0 0.0 9.0 5.0 6.0 4.0 1.0 8.0 0.0 3.0 6.0 7.0 9.0 7.0 2.0 8.0 6.0 7.0 1.0 4.0 6.0 5.0 9.0 4.0 9.0 10.0 5.0 10.0 2.0 8.0 8.0 3.0 7.0 7.0 7.0 2.0 2.0 
9.0 4.0 6.0 3.0 0.0 6.0 10.0 0.0 10.0 4.0 10.0 1.0 8.0 10.0 9.0 -414.0 9.0 8.0 9.0 7.0 9.0 2.0 10.0 10.0 3.0 2.0 1.0 3.0 7.0 9.0 10.0 1.0 9.0 0.0 2.0 1.0 5.0 10.0 4.0 3.0 7.0 9.0 3.0 10.0 4.0 8.0 7.0 0.0 1.0 3.0 2.0 10.0 6.0 0.0 5.0 8.0 8.0 10.0 1.0 9.0 5.0 3.0 4.0 4.0 4.0 3.0 9.0 5.0 0.0 2.0 2.0 6.0 6.0 5.0 2.0 8.0 2.0 9.0 
7.0 1.0 4.0 1.0 6.0 9.0 2.0 4.0 7.0 1.0 5.0 3.0 2.0 8.0 5.0 9.0 -366.0 7.0 2.0 2.0 5.0 6.0 6.0 9.0 2.0 0.0 2.0 7.0 8.0 3.0 7.0 10.0 4.0 3.0 2.0 3.0 3.0 3.0 4.0 8.0 5.0 10.0 5.0 9.0 8.0 4.0 5.0 7.0 4.0 9.0 2.0 6.0 1.0 10.0 10.0 0.0 0.0 2.0 7.0 4.0 4.0 8.0 2.0 1.0 3.0 6.0 4.0 3.0 8.0 5.0 4.0 5.0 3.0 8.0 8.0 6.0 0.0 0.0 
7.0 6.0 5.0 1.0 6.0 8.0 4.0 7.0 2.0 2.0 3.0 0.0 6.0 1.0 5.0 8.0 7.0 -378.0 7.0 9.0 2.0 3.0 7.0 1.0 10.0 0.0 5.0 3.0 0.0 7.0 3.0 2.0 3.0 8.0 10.0 8.0 6.0 1.0 4.0 7.0 4.0 9.0 10.0 9.0 4.0 5.0 4.0 5.0 10.0 2.0 6.0 4.0 3.0 0.0 10.0 8.0 6.0 8.0 7.0 3.0 7.0 0.0 3.0 2.0 8.0 7.0 1.0 3.0 3.0 1.0 3.0 4.0 9.0 8.0 5.0 3.0 9.0 1.0 
10.0 4.0 6.0 9.0 3.0 7.0 5.0 8.0 6.0 1.0 1.0 0.0 10.0 4.0 1.0 9.0 2.0 7.0 -393.0 9.0 0.0 5.0 0.0 1.0 6.0 6.0 5.0 1.0 2.0 4.0 0.0 8.0 0.0 9.0 1.0 2.0 0.0 9.0 1.0 8.0 10.0 2.0 10.0 0.0 9.0 8.0 4.0 3.0 6.0 10.0 10.0 7.0 10.0 7.0 7.0 0.0 4.0 0.0 6.0 8.0 1.0 1.0 4.0 6.0 10.0 10.0 7.0 10.0 0.0 2.0 8.0 7.0 3.0 8.0 5.0 8.0 7.0 5.0 
9.0 10.0 4.0 10.0 9.0 6.0 8.0 7.0 9.0 9.0 5.0 2.0 4.0 0.0 6.0 7.0 2.0 9.0 9.0 -374.0 2.0 7.0 5.0 8.0 8.0 8.0 3.0 10.0 5.0 10.0 0.0 1.0 4.0 8.0 0.0 1.0 4.0 7.0 7.0 2.0 4.0 3.0 3.0 2.0 2.0 0.0 7.0 4.0 9.0 0.0 5.0 0.0 1.0 0.0 4.0 5.0 0.0 9.0 1.0 8.0 0.0 2.0 6.0 1.0 7.0 10.0 6.0 9.0 4.0 0.0 9.0 6.0 7.0 2.0 0.0 7.0 0.0 6.0 
0.0 6.0 0.0 9.0 5.0 0.0 4.0 10.0 6.0 10.0 3.0 3.0 10.0 7.0 5.0 9.0 5.0 2.0 0.0 2.0 -401.0 7.0 9.0 7.0 9.0 4.0 6.0 0.0 6.0 6.0 2.0 9.0 0.0 4.0 4.0 8.0 10.0 10.0 6.0 3.0 8.0 5.0 4.0 5.0 6.0 6.0 10.0 8.0 6.0 8.0 3.0 6.0 3.0 0.0 6.0 1.0 3.0 3.0 0.0 10.0 10.0 10.0 0.0 2.0 6.0 8.0 2.0 10.0 6.0 4.0 10.0 9.0 2.0 3.0 4.0 5.0 1.0 2.0 
0.0 6.0 5.0 8.0 3.0 5.0 8.0 10.0 6.0 6.0 2.0 2.0 7.0 3.0 4.0 2.0 6.0 3.0 5.0 7.0 7.0 -357.0 8.0 6.0 7.0 9.0 8.0 5.0 10.0 4.0 8.0 4.0 2.0 10.0 10.0 1.0 9.0 1.0 1.0 2.0 2.0 1.0 6.0 6.0 4.0 6.0 5.0 0.0 6.0 3.0 1.0 7.0 2.0 4.0 10.0 1.0 7.0 2.0 4.0 3.0 1.0 2.0 1.0 8.0 2.0 2.0 7.0 4.0 2.0 5.0 3.0 0.0 4.0 10.0 2.0 10.0 2.0 2.0 
6.0 8.0 5.0 5.0 8.0 0.0 9.0 8.0 9.0 4.0 8.0 3.0 3.0 1.0 9.0 10.0 6.0 7.0 0.0 5.0 9.0 8.0 -437.0 8.0 8.0 0.0 0.0 4.0 10.0 10.0 7.0 1.0 3.0 4.0 10.0 8.0 10.0 0.0 9.0 3.0 8.0 10.0 2.0 4.0 6.0 4.0 4.0 0.0 7.0 6.0 5.0 8.0 9.0 6.0 5.0 4.0 7.0 6.0 8.0 8.0 7.0 0.0 9.0 8.0 2.0 7.0 2.0 0.0 4.0 4.0 10.0 10.0 1.0 10.0 9.0 1.0 5.0 5.0 
2.0 3.0 6.0 4.0 3.0 9.0 7.0 0.0 4.0 1.0 9.0 3.0 0.0 4.0 10.0 10.0 9.0 1.0 1.0 8.0 7.0 6.0 8.0 -384.0 3.0 10.0 2.0 7.0 6.0 9.0 9.0 7.0 6.0 7.0 8.0 0.0 10.0 8.0 2.0 10.0 8.0 9.0 1.0 2.0 0.0 7.0 5.0 9.0 1.0 0.0 0.0 1.0 1.0 5.0 5.0 9.0 7.0 1.0 8.0 5.0 10.0 0.0 4.0 0.0 9.0 0.0 6.0 6.0 2.0 4.0 3.0 3.0 4.0 9.0 3.0 4.0 8.0 6.0 
1.0 3.0 2.0 3.0 2.0 4.0 9.0 9.0 10.0 4.0 10.0 0.0 7.0 0.0 3.0 3.0 2.0 10.0 6.0 8.0 9.0 7.0 8.0 3.0 -382.0 4.0 6.0 10.0 0.0 1.0 1.0 4.0 4.0 8.0 9.0 6.0 9.0 6.0 1.0 2.0 9.0 5.0 1.0 0.0 2.0 5.0 9.0 5.0 1.0 5.0 6.0 10.0 3.0 8.0 5.0 0.0 3.0 8.0 2.0 4.0 3.0 6.0 4.0 7.0 2.0 0.0 7.0 10.0 8.0 10.0 10.0 3.0 9.0 2.0 8.0 1.0 6.0 1.0 
7.0 5.0 5.0 4.0 9.0 2.0 5.0 6.0 2.0 7.0 4.0 5.0 0.0 2.0 8.0 2.0 0.0 0.0 6.0 8.0 4.0 9.0 0.0 10.0 4.0 -386.0 9.0 5.0 4.0 6.0 8.0 7.0 2.0 8.0 1.0 2.0 5.0 10.0 7.0 9.0 10.0 6.0 1.0 0.0 5.0 4.0 7.0 1.0 6.0 5.0 1.0 4.0 1.0 6.0 2.0 1.0 3.0 1.0 7.0 7.0 10.0 8.0 8.0 5.0 8.0 9.0 9.0 4.0 7.0 4.0 9.0 4.0 8.0 3.0 7.0 5.0 3.0 0.0 
5.0 3.0 0.0 0.0 0.0 10.0 10.0 9.0 10.0 1.0 7.0 7.0 2.0 9.0 8.0 1.0 2.0 5.0 5.0 3.0 6.0 8.0 0.0 2.0 6.0 9.0 -364.0 1.0 3.0 10.0 6.0 3.0 0.0 7.0 6.0 8.0 4.0 6.0 4.0 7.0 8.0 7.0 0.0 4.0 7.0 3.0 3.0 6.0 3.0 5.0 7.0 2.0 6.0 4.0 1.0 0.0 10.0 2.0 10.0 0.0 8.0 5.0 2.0 8.0 7.0 2.0 4.0 4.0 2.0 1.0 10.0 1.0 2.0 8.0 10.0 3.0 2.0 4.0 
8.0 7.0 5.0 1.0 8.0 5.0 8.0 1.0 1.0 7.0 6.0 10.0 10.0 10.0 7.0 3.0 7.0 3.0 1.0 10.0 0.0 5.0 4.0 7.0 10.0 5.0 1.0 -344.0 6.0 3.0 3.0 8.0 1.0 3.0 4.0 2.0 7.0 3.0 10.0 5.0 0.0 0.0 0.0 10.0 6.0 3.0 6.0 10.0 1.0 3.0 2.0 4.0 3.0 2.0 3.0 6.0 0.0 8.0 3.0 1.0 2.0 5.0 6.0 4.0 5.0 3.0 2.0 8.0 5.0 0.0 2.0 6.0 4.0 3.0 4.0 5.0 3.0 1.0 
5.0 5.0 6.0 8.0 8.0 0.0 4.0 9.0 4.0 1.0 8.0 9.0 10.0 1.0 1.0 7.0 8.0 0.0 2.0 5.0 6.0 10.0 10.0 6.0 0.0 4.0 3.0 6.0 -403.0 3.0 9.0 6.0 1.0 3.0 3.0 6.0 10.0 8.0 9.0 4.0 4.0 3.0 5.0 3.0 0.0 8.0 0.0 6.0 2.0 2.0 10.0 5.0 1.0 5.0 4.0 5.0 8.0 10.0 4.0 2.0 6.0 10.0 9.0 7.0 10.0 8.0 5.0 4.0 7.0 8.0 3.0 2.0 1.0 10.0 3.0 1.0 9.0 5.0 
3.0 6.0 6.0 0.0 3.0 5.0 2.0 5.0 9.0 9.0 2.0 1.0 8.0 6.0 4.0 9.0 3.0 7.0 4.0 10.0 6.0 4.0 10.0 9.0 1.0 6.0 10.0 3.0 3.0 -375.0 9.0 4.0 4.0 10.0 8.0 8.0 1.0 5.0 10.0 1.0 0.0 2.0 5.0 5.0 2.0 10.0 3.0 4.0 3.0 0.0 3.0 8.0 3.0 5.0 2.0 4.0 0.0 6.0 3.0 1.0 6.0 6.0 4.0 10.0 6.0 6.0 6.0 1.0 4.0 10.0 3.0 5.0 9.0 4.0 5.0 4.0 0.0 3.0 
5.0 8.0 0.0 0.0 10.0 0.0 8.0 7.0 5.0 1.0 7.0 10.0 10.0 7.0 2.0 10.0 7.0 3.0 0.0 0.0 2.0 8.0 7.0 9.0 1.0 8.0 6.0 3.0 9.0 9.0 -386.0 2.0 8.0 0.0 9.0 2.0 10.0 2.0 5.0 2.0 6.0 5.0 2.0 5.0 0.0 4.0 7.0 5.0 7.0 0.0 2.0 9.0 4.0 7.0 0.0 3.0 2.0 8.0 8.0 10.0 1.0 3.0 5.0 4.0 8.0 9.0 2.0 1.0 0.0 10.0 10.0 7.0 1.0 10.0 6.0 4.0 4.0 5.0 
3.0 10.0 5.0 4.0 0.0 5.0 6.0 10.0 0.0 6.0 0.0 8.0 1.0 10.0 9.0 1.0 10.0 2.0 8.0 1.0 9.0 4.0 1.0 7.0 4.0 7.0 3.0 8.0 6.0 4.0 2.0 -407.0 3.0 1.0 5.0 4.0 9.0 9.0 4.0 9.0 9.0 4.0 7.0 8.0 1.0 4.0 10.0 3.0 10.0 9.0 6.0 8.0 6.0 7.0 7.0 6.0 8.0 0.0 6.0 8.0 5.0 6.0 0.0 1.0 0.0 6.0 3.0 1.0 8.0 9.0 6.0 0.0 2.0 9.0 6.0 10.0 3.0 7.0 
2.0 4.0 7.0 1.0 4.0 0.0 0.0 6.0 7.0 10.0 4.0 1.0 3.0 1.0 7.0 9.0 4.0 3.0 0.0 4.0 0.0 2.0 3.0 6.0 4.0 2.0 0.0 1.0 1.0 4.0 8.0 3.0 -317.0 3.0 4.0 1.0 6.0 3.0 9.0 9.0 3.0 0.0 9.0 2.0 0.0 0.0 1.0 6.0 2.0 4.0 8.0 9.0 10.0 7.0 9.0 6.0 4.0 8.0 7.0 9.0 1.0 2.0 9.0 7.0 6.0 7.0 2.0 6.0 0.0 0.0 2.0 4.0 0.0 2.0 9.0 1.0 3.0 6.0 
0.0 7.0 10.0 8.0 6.0 0.0 4.0 10.0 9.0 5.0 7.0 9.0 3.0 4.0 0.0 0.0 3.0 8.0 9.0 8.0 4.0 10.0 4.0 7.0 8.0 8.0 7.0 3.0 3.0 10.0 0.0 1.0 3.0 -403.0 6.0 2.0 7.0 5.0 4.0 2.0 5.0 3.0 7.0 3.0 5.0 9.0 8.0 3.0 3.0 10.0 3.0 7.0 4.0 0.0 2.0 9.0 10.0 9.0 0.0 1.0 8.0 8.0 7.0 10.0 2.0 6.0 3.0 6.0 8.0 6.0 5.0 3.0 2.0 7.0 9.0 7.0 0.0 1.0 
10.0 10.0 4.0 1.0 4.0 7.0 9.0 5.0 6.0 8.0 8.0 1.0 10.0 4.0 1.0 2.0 2.0 10.0 1.0 0.0 4.0 10.0 10.0 8.0 9.0 1.0 6.0 4.0 3.0 8.0 9.0 5.0 4.0 6.0 -413.0 8.0 4.0 6.0 6.0 0.0 5.0 5.0 1.0 4.0 7.0 4.0 9.0 6.0 6.0 10.0 9.0 8.0 9.0 0.0 0.0 9.0 10.0 7.0 6.0 3.0 4.0 1.0 2.0 5.0 10.0 2.0 0.0 7.0 4.0 6.0 8.0 10.0 6.0 2.0 7.0 0.0 7.0 0.0 
2.0 4.0 1.0 1.0 7.0 3.0 1.0 3.0 3.0 0.0 10.0 2.0 5.0 10.0 10.0 1.0 3.0 8.0 2.0 1.0 8.0 1.0 8.0 0.0 6.0 2.0 8.0 2.0 6.0 8.0 2.0 4.0 1.0 2.0 8.0 -361.0 7.0 6.0 9.0 6.0 7.0 6.0 4.0 7.0 7.0 3.0 0.0 6.0 10.0 9.0 2.0 10.0 5.0 6.0 0.0 2.0 8.0 5.0 8.0 10.0 4.0 1.0 9.0 0.0 10.0 7.0 1.0 6.0 5.0 1.0 4.0 5.0 3.0 0.0 8.0 1.0 0.0 10.0 
3.0 2.0 3.0 7.0 6.0 10.0 1.0 0.0 6.0 1.0 1.0 2.0 6.0 1.0 7.0 5.0 3.0 6.0 0.0 4.0 10.0 9.0 10.0 10.0 9.0 5.0 4.0 7.0 10.0 1.0 10.0 9.0 6.0 7.0 4.0 7.0 -398.0 10.0 6.0 6.0 9.0 10.0 4.0 2.0 6.0 8.0 10.0 4.0 7.0 6.0 6.0 8.0 10.0 7.0 1.0 10.0 4.0 1.0 1.0 0.0 8.0 9.0 2.0 1.0 8.0 0.0 4.0 6.0 3.0 3.0 5.0 0.0 0.0 7.0 0.0 8.0 5.0 1.0 
5.0 5.0 0.0 6.0 9.0 2.0 10.0 8.0 2.0 9.0 9.0 1.0 8.0 8.0 8.0 10.0 3.0 1.0 9.0 7.0 10.0 1.0 0.0 8.0 6.0 10.0 6.0 3.0 8.0 5.0 2.0 9.0 3.0 5.0 6.0 6.0 10.0 -448.0 7.0 0.0 6.0 8.0 3.0 5.0 10.0 2.0 9.0 10.0 3.0 2.0 6.0 7.0 9.0 4.0 7.0 9.0 7.0 10.0 7.0 2.0 8.0 10.0 1.0 4.0 5.0 7.0 4.0 10.0 5.0 1.0 9.0 2.0 1.0 7.0 9.0 6.0 2.0 6.0 
2.0 2.0 5.0 8.0 3.0 7.0 8.0 3.0 0.0 7.0 1.0 6.0 8.0 4.0 4.0 4.0 4.0 4.0 1.0 7.0 6.0 1.0 9.0 2.0 1.0 7.0 4.0 10.0 9.0 10.0 5.0 4.0 9.0 4.0 6.0 9.0 6.0 7.0 -381.0 0.0 4.0 0.0 3.0 7.0 9.0 3.0 4.0 4.0 10.0 6.0 7.0 2.0 5.0 6.0 6.0 1.0 7.0 4.0 3.0 7.0 1.0 7.0 1.0 5.0 9.0 6.0 7.0 2.0 7.0 5.0 3.0 1.0 9.0 2.0 8.0 0.0 3.0 10.0 
1.0 6.0 1.0 4.0 1.0 6.0 4.0 8.0 1.0 6.0 6.0 8.0 0.0 0.0 0.0 3.0 8.0 7.0 8.0 2.0 3.0 2.0 3.0 10.0 2.0 9.0 7.0 5.0 4.0 1.0 2.0 9.0 9.0 2.0 0.0 6.0 6.0 0.0 0.0 -326.0 2.0 3.0 6.0 9.0 3.0 5.0 9.0 0.0 10.0 4.0 4.0 4.0 1.0 8.0 3.0 9.0 3.0 10.0 6.0 2.0 5.0 1.0 1.0 10.0 0.0 5.0 2.0 8.0 5.0 1.0 7.0 3.0 4.0 0.0 4.0 5.0 1.0 3.0 
3.0 7.0 4.0 8.0 4.0 0.0 8.0 10.0 5.0 8.0 8.0 10.0 5.0 3.0 6.0 7.0 5.0 4.0 10.0 4.0 8.0 2.0 8.0 8.0 9.0 10.0 8.0 0.0 4.0 0.0 6.0 9.0 3.0 5.0 5.0 7.0 9.0 6.0 4.0 2.0 -382.0 1.0 7.0 7.0 4.0 1.0 1.0 7.0 0.0 3.0 1.0 2.0 5.0 8.0 1.0 8.0 8.0 6.0 2.0 7.0 0.0 6.0 10.0 7.0 5.0 1.0 2.0 0.0 5.0 0.0 7.0 4.0 1.0 3.0 7.0 4.0 2.0 7.0 
3.0 6.0 10.0 7.0 8.0 7.0 8.0 8.0 7.0 8.0 8.0 6.0 0.0 2.0 2.0 9.0 10.0 9.0 2.0 3.0 5.0 1.0 10.0 9.0 5.0 6.0 7.0 0.0 3.0 2.0 5.0 4.0 0.0 3.0 5.0 6.0 10.0 8.0 0.0 3.0 1.0 -386.0 6.0 5.0 8.0 4.0 1.0 7.0 7.0 9.0 2.0 8.0 0.0 6.0 6.0 1.0 6.0 6.0 4.0 1.0 3.0 1.0 9.0 4.0 1.0 7.0 2.0 8.0 5.0 4.0 1.0 7.0 2.0 8.0 2.0 6.0 5.0 8.0 
7.0 9.0 5.0 10.0 8.0 8.0 7.0 0.0 9.0 10.0 2.0 0.0 5.0 6.0 0.0 3.0 5.0 10.0 10.0 3.0 4.0 6.0 2.0 1.0 1.0 1.0 0.0 0.0 5.0 5.0 2.0 7.0 9.0 7.0 1.0 4.0 4.0 3.0 3.0 6.0 7.0 6.0 -397.0 8.0 8.0 9.0 10.0 8.0 0.0 1.0 8.0 7.0 2.0 2.0 5.0 6.0 6.0 1.0 4.0 10.0 7.0 10.0 7.0 2.0 2.0 3.0 0.0 10.0 1.0 8.0 7.0 10.0 5.0 1.0 10.0 7.0 10.0 1.0 
6.0 8.0 9.0 6.0 10.0 5.0 4.0 0.0 0.0 9.0 3.0 2.0 1.0 6.0 9.0 10.0 9.0 9.0 0.0 2.0 5.0 6.0 4.0 2.0 0.0 0.0 4.0 10.0 3.0 5.0 5.0 8.0 2.0 3.0 4.0 7.0 2.0 5.0 7.0 9.0 7.0 5.0 8.0 -381.0 7.0 10.0 7.0 8.0 0.0 10.0 2.0 4.0 2.0 9.0 3.0 3.0 2.0 10.0 3.0 3.0 2.0 9.0 9.0 5.0 3.0 1.0 3.0 7.0 10.0 5.0 4.0 0.0 1.0 0.0 10.0 1.0 3.0 6.0 
9.0 5.0 5.0 0.0 7.0 6.0 6.0 1.0 0.0 5.0 2.0 8.0 9.0 1.0 5.0 4.0 8.0 4.0 9.0 2.0 6.0 4.0 6.0 0.0 2.0 5.0 7.0 6.0 0.0 2.0 0.0 1.0 0.0 5.0 7.0 7.0 6.0 10.0 9.0 3.0 4.0 8.0 8.0 7.0 -398.0 6.0 10.0 7.0 9.0 0.0 7.0 10.0 9.0 5.0 3.0 4.0 1.0 1.0 4.0 7.0 4.0 10.0 9.0 4.0 0.0 6.0 1.0 7.0 8.0 4.0 9.0 10.0 3.0 10.0 9.0 1.0 6.0 5.0 
2.0 1.0 1.0 9.0 3.0 8.0 1.0 3.0 3.0 6.0 1.0 8.0 5.0 9.0 6.0 8.0 4.0 5.0 8.0 0.0 6.0 6.0 4.0 7.0 5.0 4.0 3.0 3.0 8.0 10.0 4.0 4.0 0.0 9.0 4.0 3.0 8.0 2.0 3.0 5.0 1.0 4.0 9.0 10.0 6.0 -361.0 6.0 2.0 0.0 3.0 9.0 4.0 1.0 10.0 6.0 6.0 2.0 8.0 0.0 10.0 6.0 1.0 3.0 1.0 1.0 7.0 4.0 1.0 0.0 9.0 3.0 7.0 10.0 3.0 6.0 3.0 9.0 1.0 
2.0 3.0 10.0 4.0 5.0 3.0 9.0 4.0 1.0 4.0 8.0 6.0 2.0 2.0 4.0 7.0 5.0 4.0 4.0 7.0 10.0 5.0 4.0 5.0 9.0 7.0 3.0 6.0 0.0 3.0 7.0 10.0 1.0 8.0 9.0 0.0 10.0 9.0 4.0 9.0 1.0 1.0 10.0 7.0 10.0 6.0 -379.0 9.0 0.0 4.0 5.0 4.0 9.0 5.0 4.0 2.0 4.0 2.0 0.0 1.0 10.0 1.0 9.0 0.0 3.0 8.0 4.0 2.0 8.0 1.0 0.0 2.0 4.0 7.0 8.0 8.0 5.0 2.0 
3.0 10.0 7.0 9.0 5.0 10.0 7.0 1.0 5.0 5.0 9.0 4.0 0.0 1.0 1.0 0.0 7.0 5.0 3.0 4.0 8.0 0.0 0.0 9.0 5.0 1.0 6.0 10.0 6.0 4.0 5.0 3.0 6.0 3.0 6.0 6.0 4.0 10.0 4.0 0.0 7.0 7.0 8.0 8.0 7.0 2.0 9.0 -399.0 0.0 4.0 6.0 6.0 7.0 10.0 3.0 8.0 2.0 3.0 3.0 4.0 1.0 9.0 6.0 3.0 3.0 7.0 0.0 6.0 8.0 9.0 6.0 4.0 10.0 9.0 3.0 2.0 8.0 9.0 
0.0 7.0 6.0 7.0 7.0 6.0 4.0 10.0 10.0 10.0 3.0 5.0 7.0 0.0 8.0 1.0 4.0 10.0 6.0 9.0 6.0 6.0 7.0 1.0 1.0 6.0 3.0 1.0 2.0 3.0 7.0 10.0 2.0 3.0 6.0 10.0 7.0 3.0 10.0 10.0 0.0 7.0 0.0 0.0 9.0 0.0 0.0 0.0 -396.0 3.0 3.0 10.0 8.0 9.0 9.0 2.0 9.0 3.0 9.0 9.0 2.0 8.0 7.0 0.0 2.0 1.0 5.0 4.0 9.0 8.0 3.0 6.0 3.0 4.0 4.0 5.0 7.0 4.0 
4.0 6.0 10.0 2.0 2.0 0.0 0.0 0.0 1.0 4.0 4.0 10.0 6.0 1.0 0.0 3.0 9.0 2.0 10.0 0.0 8.0 3.0 6.0 0.0 5.0 5.0 5.0 3.0 2.0 0.0 0.0 9.0 4.0 10.0 10.0 9.0 6.0 2.0 6.0 4.0 3.0 9.0 1.0 10.0 0.0 3.0 4.0 4.0 3.0 -364.0 9.0 7.0 10.0 6.0 8.0 3.0 8.0 4.0 3.0 2.0 9.0 2.0 5.0 9.0 1.0 7.0 2.0 9.0 8.0 8.0 8.0 9.0 3.0 1.0 3.0 2.0 10.0 0.0 
2.0 4.0 2.0 10.0 8.0 2.0 0.0 0.0 4.0 6.0 4.0 5.0 0.0 0.0 3.0 2.0 2.0 6.0 10.0 5.0 3.0 1.0 5.0 0.0 6.0 1.0 7.0 2.0 10.0 3.0 2.0 6.0 8.0 3.0 9.0 2.0 6.0 6.0 7.0 4.0 1.0 2.0 8.0 2.0 7.0 9.0 5.0 6.0 3.0 9.0 -346.0 7.0 10.0 7.0 5.0 4.0 5.0 9.0 2.0 2.0 6.0 2.0 0.0 4.0 5.0 1.0 3.0 10.0 8.0 5.0 6.0 5.0 2.0 8.0 8.0 0.0 2.0 2.0 
6.0 6.0 6.0 5.0 5.0 9.0 7.0 6.0 6.0 2.0 10.0 5.0 2.0 0.0 6.0 10.0 6.0 4.0 7.0 0.0 6.0 7.0 8.0 1.0 10.0 4.0 2.0 4.0 5.0 8.0 9.0 8.0 9.0 7.0 8.0 10.0 8.0 7.0 2.0 4.0 2.0 8.0 7.0 4.0 10.0 4.0 4.0 6.0 10.0 7.0 7.0 -418.0 7.0 3.0 3.0 4.0 10.0 2.0 9.0 2.0 1.0 2.0 5.0 6.0 6.0 4.0 10.0 6.0 6.0 1.0 3.0 5.0 1.0 8.0 1.0 1.0 8.0 0.0 
2.0 7.0 1.0 8.0 2.0 1.0 10.0 1.0 10.0 5.0 0.0 3.0 0.0 8.0 7.0 6.0 1.0 3.0 10.0 1.0 3.0 2.0 9.0 1.0 3.0 1.0 6.0 3.0 1.0 3.0 4.0 6.0 10.0 4.0 9.0 5.0 10.0 9.0 5.0 1.0 5.0 0.0 2.0 2.0 9.0 1.0 9.0 7.0 8.0 10.0 10.0 7.0 -359.0 10.0 8.0 0.0 8.0 7.0 10.0 0.0 1.0 9.0 4.0 1.0 1.0 0.0 1.0 6.0 10.0 6.0 2.0 1.0 2.0 0.0 4.0 4.0 6.0 7.0 
7.0 1.0 0.0 2.0 1.0 7.0 2.0 10.0 10.0 2.0 6.0 0.0 7.0 0.0 9.0 0.0 10.0 0.0 7.0 0.0 0.0 4.0 6.0 5.0 8.0 6.0 4.0 2.0 5.0 5.0 7.0 7.0 7.0 0.0 0.0 6.0 7.0 4.0 6.0 8.0 8.0 6.0 2.0 9.0 5.0 10.0 5.0 10.0 9.0 6.0 7.0 3.0 10.0 -367.0 5.0 2.0 4.0 6.0 3.0 9.0 7.0 3.0 10.0 7.0 6.0 7.0 3.0 2.0 9.0 4.0 1.0 0.0 0.0 0.0 2.0 3.0 6.0 0.0 
0.0 4.0 8.0 2.0 0.0 6.0 10.0 10.0 4.0 4.0 10.0 4.0 5.0 9.0 7.0 5.0 10.0 10.0 7.0 4.0 6.0 10.0 5.0 5.0 5.0 2.0 1.0 3.0 4.0 2.0 0.0 7.0 9.0 2.0 0.0 0.0 1.0 7.0 6.0 3.0 1.0 6.0 5.0 3.0 3.0 6.0 4.0 3.0 9.0 8.0 5.0 3.0 8.0 5.0 -347.0 2.0 4.0 6.0 4.0 2.0 2.0 1.0 3.0 1.0 3.0 3.0 1.0 3.0 6.0 2.0 4.0 0.0 5.0 8.0 1.0 9.0 10.0 1.0 
5.0 10.0 5.0 8.0 10.0 1.0 2.0 2.0 10.0 2.0 0.0 5.0 8.0 3.0 2.0 8.0 0.0 8.0 0.0 5.0 1.0 1.0 4.0 9.0 0.0 1.0 0.0 6.0 5.0 4.0 3.0 6.0 6.0 9.0 9.0 2.0 10.0 9.0 1.0 9.0 8.0 1.0 6.0 3.0 4.0 6.0 2.0 8.0 2.0 3.0 4.0 4.0 0.0 2.0 2.0 -377.0 8.0 2.0 9.0 10.0 10.0 9.0 10.0 3.0 8.0 9.0 9.0 6.0 4.0 3.0 3.0 3.0 0.0 7.0 7.0 9.0 0.0 4.0 
2.0 4.0 2.0 8.0 8.0 2.0 6.0 8.0 0.0 6.0 8.0 10.0 3.0 6.0 8.0 8.0 0.0 6.0 4.0 0.0 3.0 7.0 7.0 7.0 3.0 3.0 10.0 0.0 8.0 0.0 2.0 8.0 4.0 10.0 10.0 8.0 4.0 7.0 7.0 3.0 8.0 6.0 6.0 2.0 1.0 2.0 4.0 2.0 9.0 8.0 5.0 10.0 8.0 4.0 4.0 8.0 -415.0 10.0 7.0 2.0 7.0 2.0 0.0 9.0 6.0 4.0 9.0 2.0 9.0 9.0 5.0 6.0 4.0 4.0 6.0 7.0 5.0 5.0 
3.0 8.0 6.0 7.0 10.0 0.0 3.0 8.0 4.0 7.0 4.0 5.0 3.0 0.0 6.0 10.0 2.0 8.0 0.0 9.0 3.0 2.0 6.0 1.0 8.0 1.0 2.0 8.0 10.0 6.0 8.0 0.0 8.0 9.0 7.0 5.0 1.0 10.0 4.0 10.0 6.0 6.0 1.0 10.0 1.0 8.0 2.0 3.0 3.0 4.0 9.0 2.0 7.0 6.0 6.0 2.0 10.0 -398.0 6.0 3.0 8.0 0.0 6.0 7.0 9.0 8.0 2.0 7.0 0.0 0.0 7.0 6.0 3.0 9.0 6.0 0.0 7.0 6.0 
0.0 3.0 5.0 4.0 4.0 6.0 0.0 9.0 10.0 9.0 5.0 8.0 0.0 0.0 7.0 1.0 7.0 7.0 6.0 1.0 0.0 4.0 8.0 8.0 2.0 7.0 10.0 3.0 4.0 3.0 8.0 6.0 7.0 0.0 6.0 8.0 1.0 7.0 3.0 6.0 2.0 4.0 4.0 3.0 4.0 0.0 0.0 3.0 9.0 3.0 2.0 9.0 10.0 3.0 4.0 9.0 7.0 6.0 -368.0 1.0 10.0 10.0 5.0 5.0 3.0 1.0 2.0 7.0 0.0 10.0 4.0 4.0 0.0 9.0 2.0 7.0 9.0 4.0 
6.0 8.0 7.0 0.0 6.0 10.0 7.0 3.0 8.0 8.0 10.0 6.0 8.0 0.0 1.0 9.0 4.0 3.0 8.0 8.0 10.0 3.0 8.0 5.0 4.0 7.0 0.0 1.0 2.0 1.0 10.0 8.0 9.0 1.0 3.0 10.0 0.0 2.0 7.0 2.0 7.0 1.0 10.0 3.0 7.0 10.0 1.0 4.0 9.0 2.0 2.0 2.0 0.0 9.0 2.0 10.0 2.0 3.0 1.0 -360.0 6.0 0.0 6.0 8.0 1.0 6.0 5.0 2.0 1.0 4.0 2.0 4.0 1.0 2.0 1.0 4.0 7.0 2.0 
7.0 2.0 8.0 7.0 1.0 2.0 1.0 9.0 3.0 6.0 6.0 5.0 7.0 1.0 4.0 5.0 4.0 7.0 1.0 0.0 10.0 1.0 7.0 10.0 3.0 10.0 8.0 2.0 6.0 6.0 1.0 5.0 1.0 8.0 4.0 4.0 8.0 8.0 1.0 5.0 0.0 3.0 7.0 2.0 4.0 6.0 10.0 1.0 2.0 9.0 6.0 1.0 1.0 7.0 2.0 10.0 7.0 8.0 10.0 6.0 -359.0 0.0 10.0 4.0 1.0 8.0 4.0 1.0 6.0 2.0 6.0 1.0 7.0 6.0 2.0 3.0 0.0 2.0 
0.0 8.0 10.0 7.0 0.0 6.0 7.0 0.0 6.0 7.0 9.0 6.0 4.0 7.0 6.0 3.0 8.0 0.0 1.0 2.0 10.0 2.0 0.0 0.0 6.0 8.0 5.0 5.0 10.0 6.0 3.0 6.0 2.0 8.0 1.0 1.0 9.0 10.0 7.0 1.0 6.0 1.0 10.0 9.0 10.0 1.0 1.0 9.0 8.0 2.0 2.0 2.0 9.0 3.0 1.0 9.0 2.0 0.0 10.0 0.0 0.0 -357.0 5.0 10.0 4.0 6.0 4.0 1.0 5.0 1.0 7.0 7.0 2.0 2.0 5.0 0.0 5.0 1.0 
9.0 7.0 7.0 0.0 8.0 2.0 0.0 0.0 7.0 3.0 0.0 3.0 8.0 5.0 5.0 4.0 2.0 3.0 4.0 6.0 0.0 1.0 9.0 4.0 4.0 8.0 2.0 6.0 9.0 4.0 5.0 0.0 9.0 7.0 2.0 9.0 2.0 1.0 1.0 1.0 10.0 9.0 7.0 9.0 9.0 3.0 9.0 6.0 7.0 5.0 0.0 5.0 4.0 10.0 3.0 10.0 0.0 6.0 5.0 6.0 10.0 5.0 -395.0 0.0 10.0 8.0 9.0 0.0 1.0 10.0 8.0 6.0 10.0 8.0 7.0 7.0 5.0 1.0 
9.0 2.0 4.0 2.0 3.0 2.0 6.0 9.0 4.0 6.0 1.0 3.0 4.0 8.0 9.0 4.0 1.0 2.0 6.0 1.0 2.0 8.0 8.0 0.0 7.0 5.0 8.0 4.0 7.0 10.0 4.0 1.0 7.0 10.0 5.0 0.0 1.0 4.0 5.0 10.0 7.0 4.0 2.0 5.0 4.0 1.0 0.0 3.0 0.0 9.0 4.0 6.0 1.0 7.0 1.0 3.0 9.0 7.0 5.0 8.0 4.0 10.0 0.0 -337.0 2.0 2.0 7.0 0.0 0.0 0.0 6.0 6.0 1.0 4.0 0.0 4.0 6.0 7.0 
6.0 7.0 10.0 7.0 4.0 2.0 9.0 10.0 0.0 5.0 1.0 4.0 3.0 5.0 4.0 4.0 3.0 8.0 10.0 7.0 6.0 2.0 2.0 9.0 2.0 8.0 7.0 5.0 10.0 6.0 8.0 0.0 6.0 2.0 10.0 10.0 8.0 5.0 9.0 0.0 5.0 1.0 2.0 3.0 0.0 1.0 3.0 3.0 2.0 1.0 5.0 6.0 1.0 6.0 3.0 8.0 6.0 9.0 3.0 1.0 1.0 4.0 10.0 2.0 -365.0 3.0 2.0 3.0 1.0 1.0 5.0 6.0 5.0 6.0 9.0 2.0 3.0 9.0 
9.0 10.0 1.0 5.0 7.0 2.0 1.0 0.0 1.0 4.0 1.0 7.0 7.0 8.0 9.0 3.0 6.0 7.0 10.0 10.0 8.0 2.0 7.0 0.0 0.0 9.0 2.0 3.0 8.0 6.0 9.0 6.0 7.0 6.0 2.0 7.0 0.0 7.0 6.0 5.0 1.0 7.0 3.0 1.0 6.0 7.0 8.0 7.0 1.0 7.0 1.0 4.0 0.0 7.0 3.0 9.0 4.0 8.0 1.0 6.0 8.0 6.0 8.0 2.0 3.0 -377.0 4.0 6.0 6.0 1.0 6.0 1.0 5.0 6.0 1.0 10.0 4.0 1.0 
2.0 1.0 5.0 9.0 9.0 7.0 10.0 2.0 1.0 1.0 0.0 4.0 3.0 7.0 10.0 9.0 4.0 1.0 7.0 6.0 2.0 7.0 2.0 6.0 7.0 9.0 4.0 2.0 5.0 6.0 2.0 3.0 2.0 3.0 0.0 1.0 4.0 4.0 7.0 2.0 2.0 2.0 0.0 3.0 1.0 4.0 4.0 0.0 5.0 2.0 3.0 10.0 1.0 3.0 1.0 9.0 9.0 2.0 2.0 5.0 4.0 4.0 9.0 7.0 2.0 4.0 -308.0 0.0 7.0 2.0 5.0 6.0 2.0 6.0 2.0 1.0 3.0 0.0 
4.0 9.0 6.0 9.0 6.0 2.0 7.0 8.0 8.0 0.0 6.0 9.0 4.0 8.0 5.0 5.0 3.0 3.0 10.0 9.0 10.0 4.0 0.0 6.0 10.0 4.0 4.0 8.0 4.0 1.0 1.0 1.0 6.0 6.0 7.0 6.0 6.0 10.0 2.0 8.0 0.0 8.0 10.0 7.0 7.0 1.0 2.0 6.0 4.0 9.0 10.0 6.0 6.0 2.0 3.0 6.0 2.0 7.0 7.0 2.0 1.0 1.0 0.0 0.0 3.0 6.0 0.0 -403.0 3.0 2.0 9.0 8.0 1.0 9.0 10.0 8.0 9.0 3.0 
8.0 7.0 3.0 1.0 7.0 4.0 7.0 3.0 7.0 6.0 10.0 0.0 7.0 1.0 10.0 0.0 8.0 3.0 0.0 4.0 6.0 2.0 4.0 2.0 8.0 7.0 2.0 5.0 7.0 4.0 0.0 8.0 0.0 8.0 4.0 5.0 3.0 5.0 7.0 5.0 5.0 5.0 1.0 10.0 8.0 0.0 8.0 8.0 9.0 8.0 8.0 6.0 10.0 9.0 6.0 4.0 9.0 0.0 0.0 1.0 6.0 5.0 1.0 0.0 1.0 6.0 7.0 3.0 -384.0 2.0 2.0 9.0 7.0 7.0 3.0 10.0 10.0 2.0 
1.0 10.0 6.0 4.0 0.0 8.0 2.0 5.0 10.0 9.0 6.0 3.0 6.0 9.0 2.0 2.0 5.0 1.0 2.0 0.0 4.0 5.0 4.0 4.0 10.0 4.0 1.0 0.0 8.0 10.0 10.0 9.0 0.0 6.0 6.0 1.0 3.0 1.0 5.0 1.0 0.0 4.0 8.0 5.0 4.0 9.0 1.0 9.0 8.0 8.0 5.0 1.0 6.0 4.0 2.0 3.0 9.0 0.0 10.0 4.0 2.0 1.0 10.0 0.0 1.0 1.0 2.0 2.0 2.0 -336.0 0.0 6.0 0.0 10.0 8.0 0.0 8.0 0.0 
4.0 9.0 9.0 8.0 2.0 6.0 0.0 2.0 0.0 8.0 6.0 1.0 5.0 3.0 8.0 2.0 4.0 3.0 8.0 9.0 10.0 3.0 10.0 3.0 10.0 9.0 10.0 2.0 3.0 3.0 10.0 6.0 2.0 5.0 8.0 4.0 5.0 9.0 3.0 7.0 7.0 1.0 7.0 4.0 9.0 3.0 0.0 6.0 3.0 8.0 6.0 3.0 2.0 1.0 4.0 3.0 5.0 7.0 4.0 2.0 6.0 7.0 8.0 6.0 5.0 6.0 5.0 9.0 2.0 0.0 -391.0 6.0 4.0 8.0 0.0 5.0 10.0 0.0 
6.0 10.0 9.0 0.0 9.0 0.0 10.0 8.0 0.0 1.0 6.0 10.0 9.0 0.0 8.0 6.0 5.0 4.0 7.0 6.0 9.0 0.0 10.0 3.0 3.0 4.0 1.0 6.0 2.0 5.0 7.0 0.0 4.0 3.0 10.0 5.0 0.0 2.0 1.0 3.0 4.0 7.0 10.0 0.0 10.0 7.0 2.0 4.0 6.0 9.0 5.0 5.0 1.0 0.0 0.0 3.0 6.0 6.0 4.0 4.0 1.0 7.0 6.0 6.0 6.0 1.0 6.0 8.0 9.0 6.0 6.0 -388.0 9.0 7.0 4.0 10.0 2.0 9.0 
5.0 0.0 8.0 3.0 6.0 10.0 2.0 9.0 5.0 5.0 10.0 4.0 5.0 0.0 3.0 6.0 3.0 9.0 3.0 7.0 2.0 4.0 1.0 4.0 9.0 8.0 2.0 4.0 1.0 9.0 1.0 2.0 0.0 2.0 6.0 3.0 0.0 1.0 9.0 4.0 1.0 2.0 5.0 1.0 3.0 10.0 4.0 10.0 3.0 3.0 2.0 1.0 2.0 0.0 5.0 0.0 4.0 3.0 0.0 1.0 7.0 2.0 10.0 1.0 5.0 5.0 2.0 1.0 7.0 0.0 4.0 9.0 -323.0 6.0 9.0 10.0 0.0 10.0 
8.0 0.0 6.0 9.0 9.0 2.0 0.0 8.0 10.0 9.0 0.0 2.0 2.0 1.0 7.0 5.0 8.0 8.0 8.0 2.0 3.0 10.0 10.0 9.0 2.0 3.0 8.0 3.0 10.0 4.0 10.0 9.0 2.0 7.0 2.0 0.0 7.0 7.0 2.0 0.0 3.0 8.0 1.0 0.0 10.0 3.0 7.0 9.0 4.0 1.0 8.0 8.0 0.0 0.0 8.0 7.0 4.0 9.0 9.0 2.0 6.0 2.0 8.0 4.0 6.0 6.0 6.0 9.0 7.0 10.0 8.0 7.0 6.0 -419.0 9.0 2.0 10.0 0.0 
4.0 0.0 8.0 2.0 7.0 5.0 4.0 7.0 6.0 10.0 7.0 0.0 1.0 0.0 7.0 2.0 8.0 5.0 5.0 0.0 4.0 2.0 9.0 3.0 8.0 7.0 10.0 4.0 3.0 5.0 6.0 6.0 9.0 9.0 7.0 8.0 0.0 9.0 8.0 4.0 7.0 2.0 10.0 10.0 9.0 6.0 8.0 3.0 4.0 3.0 8.0 1.0 4.0 2.0 1.0 7.0 6.0 6.0 2.0 1.0 2.0 5.0 7.0 0.0 9.0 1.0 2.0 10.0 3.0 8.0 0.0 4.0 9.0 9.0 -391.0 0.0 7.0 6.0 
2.0 0.0 10.0 0.0 5.0 1.0 7.0 0.0 6.0 6.0 8.0 2.0 0.0 10.0 7.0 8.0 6.0 3.0 8.0 7.0 5.0 10.0 1.0 4.0 1.0 5.0 3.0 5.0 1.0 4.0 4.0 10.0 1.0 7.0 0.0 1.0 8.0 6.0 0.0 5.0 4.0 6.0 7.0 1.0 1.0 3.0 8.0 2.0 5.0 2.0 0.0 1.0 4.0 3.0 9.0 9.0 7.0 0.0 7.0 4.0 3.0 0.0 7.0 4.0 2.0 10.0 1.0 8.0 10.0 0.0 5.0 10.0 10.0 2.0 0.0 -347.0 8.0 7.0 
10.0 0.0 10.0 3.0 5.0 0.0 2.0 7.0 1.0 8.0 2.0 10.0 10.0 2.0 2.0 2.0 0.0 9.0 7.0 0.0 1.0 2.0 5.0 8.0 6.0 3.0 2.0 3.0 9.0 0.0 4.0 3.0 3.0 0.0 7.0 0.0 5.0 2.0 3.0 1.0 2.0 5.0 10.0 3.0 6.0 9.0 5.0 8.0 7.0 10.0 2.0 8.0 6.0 6.0 10.0 0.0 5.0 7.0 9.0 7.0 0.0 5.0 5.0 6.0 3.0 4.0 3.0 9.0 10.0 8.0 10.0 2.0 0.0 10.0 7.0 8.0 -380.0 8.0 
6.0 0.0 9.0 10.0 6.0 6.0 6.0 6.0 0.0 2.0 3.0 3.0 5.0 5.0 2.0 9.0 0.0 1.0 5.0 6.0 2.0 2.0 5.0 6.0 1.0 0.0 4.0 1.0 5.0 3.0 5.0 7.0 6.0 1.0 0.0 10.0 1.0 6.0 10.0 3.0 7.0 8.0 1.0 6.0 5.0 1.0 2.0 9.0 4.0 0.0 2.0 0.0 7.0 0.0 1.0 4.0 5.0 6.0 4.0 2.0 2.0 1.0 1.0 7.0 9.0 1.0 0.0 3.0 2.0 0.0 0.0 9.0 10.0 0.0 6.0 7.0 8.0 -308.0 

